language ESSENCE' 1.0
$ Minion SolverNodes: 2383
$ Minion SolverTotalTime: 0.089161
$ Minion SolverTimeOut: 0
$ Savile Row TotalTime: 0.857
letting carrying be [4, 4, 8, 12, 12, 12, 24, 24, 5, 5, 10, 15, 15]
letting registers be [[-1, 4, 4, 4, 4, 12, 12, 12, 12, 5, 5, 5, 5]]
letting steps be [1, 4, 1, 5, 2, 4, 5, 2, 1, 4, 5, 5, 2]
